100
128
45
17
14
19
13
51
32
11
3
2
47
11
63
21
43
3
53
3
27
19
22
31
45
54
31
25
17
47
58
15
18
25
11
18
51
40
30
18
31
23
18
16
14
17
5
1
4
2
6
8
2
8
20
13
7
50
46
45
20
9
28
20
51
45
7
3
53
4
53
52
58
49
58
21
2
35
8
36
34
3
1
44
45
6
41
48
41
57
43
11
27
56
27
7
32
10
38
5
59
7